Set parameter Username
Academic license - for non-commercial use only - expires 2024-02-22
Warning: Gurobi version mismatch between Python 9.5.0 and C library 9.5.2
Set parameter TimeLimit to value 3600
Set parameter MIPGap to value 1e-06
Set parameter Threads to value 1
Gurobi Optimizer version 9.5.2 build v9.5.2rc0 (linux64)
Thread count: 4 physical cores, 4 logical processors, using up to 1 threads
Optimize a model with 4446 rows, 4342 columns and 18122 nonzeros
Model fingerprint: 0xc171da3a
Variable types: 4238 continuous, 104 integer (104 binary)
Coefficient statistics:
  Matrix range     [1e+00, 2e+02]
  Objective range  [8e-01, 2e+03]
  Bounds range     [1e+00, 1e+00]
  RHS range        [2e+01, 2e+02]
Presolve removed 129 rows and 76 columns
Presolve time: 0.03s
Presolved: 4317 rows, 4266 columns, 16717 nonzeros
Variable types: 4163 continuous, 103 integer (103 binary)
Found heuristic solution: objective 114400.00000

Root relaxation: objective 1.461430e+04, 4393 iterations, 0.14 seconds (0.14 work units)

    Nodes    |    Current Node    |     Objective Bounds      |     Work
 Expl Unexpl |  Obj  Depth IntInf | Incumbent    BestBd   Gap | It/Node Time

     0     0 14614.3040    0   53 114400.000 14614.3040  87.2%     -    0s
H    0     0                    29016.779484 14614.3040  49.6%     -    0s
     0     0 14978.1317    0   46 29016.7795 14978.1317  48.4%     -    0s
H    0     0                    28156.466688 14978.1317  46.8%     -    0s
     0     0 14980.7487    0   46 28156.4667 14980.7487  46.8%     -    0s
     0     0 15274.0687    0   52 28156.4667 15274.0687  45.8%     -    0s
     0     0 15287.3737    0   52 28156.4667 15287.3737  45.7%     -    0s
     0     0 15711.8986    0   50 28156.4667 15711.8986  44.2%     -    0s
H    0     0                    27656.862058 15711.8986  43.2%     -    0s
     0     0 15887.6039    0   47 27656.8621 15887.6039  42.6%     -    0s
     0     0 15896.1848    0   50 27656.8621 15896.1848  42.5%     -    0s
     0     0 15896.2179    0   49 27656.8621 15896.2179  42.5%     -    0s
     0     0 16733.6260    0   43 27656.8621 16733.6260  39.5%     -    0s
H    0     0                    23014.358635 16733.6260  27.3%     -    0s
H    0     0                    17315.200000 16733.6260  3.36%     -    0s
     0     0 16776.0234    0   45 17315.2000 16776.0234  3.11%     -    0s
     0     0 16777.2713    0   39 17315.2000 16777.2713  3.11%     -    0s
     0     0 16954.4508    0   38 17315.2000 16954.4508  2.08%     -    0s
     0     0 16954.4508    0   51 17315.2000 16954.4508  2.08%     -    0s
H    0     0                    17270.200000 16954.4508  1.83%     -    0s
     0     0 16954.4508    0   28 17270.2000 16954.4508  1.83%     -    0s
     0     0 16954.4508    0   28 17270.2000 16954.4508  1.83%     -    0s
     0     0 16954.4508    0   31 17270.2000 16954.4508  1.83%     -    0s
     0     0 16957.8861    0   31 17270.2000 16957.8861  1.81%     -    0s
     0     0 16966.8756    0   30 17270.2000 16966.8756  1.76%     -    0s
     0     0 16968.3620    0   31 17270.2000 16968.3620  1.75%     -    0s
     0     0 16992.1966    0   25 17270.2000 16992.1966  1.61%     -    0s
     0     0 16992.2174    0   25 17270.2000 16992.2174  1.61%     -    0s
     0     0 17024.3872    0   31 17270.2000 17024.3872  1.42%     -    0s
     0     0 17024.4759    0   36 17270.2000 17024.4759  1.42%     -    0s
     0     0 17034.4568    0   35 17270.2000 17034.4568  1.37%     -    0s
     0     0 17034.6571    0   36 17270.2000 17034.6571  1.36%     -    0s
     0     0 17034.8215    0   35 17270.2000 17034.8215  1.36%     -    0s
     0     0 17035.1904    0   28 17270.2000 17035.1904  1.36%     -    0s
     0     0 17035.2819    0   28 17270.2000 17035.2819  1.36%     -    0s
     0     0 17035.2827    0   28 17270.2000 17035.2827  1.36%     -    0s
     0     0 17035.2827    0   28 17270.2000 17035.2827  1.36%     -    0s
H    0     0                    17263.200000 17035.2827  1.32%     -    0s
     0     0 17035.2827    0   50 17263.2000 17035.2827  1.32%     -    1s
     0     0 17035.2827    0   38 17263.2000 17035.2827  1.32%     -    1s
     0     0 17035.2827    0   31 17263.2000 17035.2827  1.32%     -    1s
     0     0 17035.2827    0   28 17263.2000 17035.2827  1.32%     -    1s
     0     0 17035.2827    0   18 17263.2000 17035.2827  1.32%     -    1s
     0     0 17035.2827    0   29 17263.2000 17035.2827  1.32%     -    1s
     0     0 17035.2827    0   28 17263.2000 17035.2827  1.32%     -    1s
     0     0 17035.2827    0   28 17263.2000 17035.2827  1.32%     -    1s
     0     0 17038.3222    0   27 17263.2000 17038.3222  1.30%     -    1s
H    0     0                    17201.200000 17038.3222  0.95%     -    1s
     0     0 17038.3222    0   27 17201.2000 17038.3222  0.95%     -    1s
     0     0 17041.3723    0   27 17201.2000 17041.3723  0.93%     -    1s
     0     0 17042.2472    0   20 17201.2000 17042.2472  0.92%     -    1s
     0     0 17045.6795    0   22 17201.2000 17045.6795  0.90%     -    1s
     0     0 17045.6838    0   22 17201.2000 17045.6838  0.90%     -    1s
     0     0 17045.6838    0   22 17201.2000 17045.6838  0.90%     -    1s
     0     0 17045.6838    0   22 17201.2000 17045.6838  0.90%     -    1s
H    0     0                    17140.200000 17045.6838  0.55%     -    1s
H    0     0                    17081.200000 17045.6838  0.21%     -    1s
     0     0 17045.6838    0   40 17081.2000 17045.6838  0.21%     -    1s
     0     0 17045.6838    0   23 17081.2000 17045.6838  0.21%     -    1s
     0     0 17050.1895    0   21 17081.2000 17050.1895  0.18%     -    1s
     0     0 17050.3167    0   16 17081.2000 17050.3167  0.18%     -    1s
     0     0 17050.3183    0   18 17081.2000 17050.3183  0.18%     -    1s
     0     0 17052.0685    0    9 17081.2000 17052.0685  0.17%     -    1s
     0     0 17070.5089    0    4 17081.2000 17070.5089  0.06%     -    1s
     0     0 17075.4287    0    9 17081.2000 17075.4287  0.03%     -    1s
     0     0 17075.4769    0    9 17081.2000 17075.4769  0.03%     -    1s
     0     0 17075.4769    0    9 17081.2000 17075.4769  0.03%     -    1s
     0     0 17076.2766    0    8 17081.2000 17076.2766  0.03%     -    1s
     0     0 17080.9176    0    1 17081.2000 17080.9176  0.00%     -    1s
     0     0     cutoff    0      17081.2000 17081.2000  0.00%     -    1s

Cutting planes:
  Lift-and-project: 3
  Implied bound: 1
  MIR: 41
  Flow cover: 9

Explored 1 nodes (9883 simplex iterations) in 1.34 seconds (1.02 work units)
Thread count was 1 (of 4 available processors)

Solution count 10: 17081.2 17140.2 17201.2 ... 27656.9

Optimal solution found (tolerance 1.00e-06)
Best objective 1.708120000000e+04, best bound 1.708120000000e+04, gap 0.0000%
Obj: 17081.2
